db/data/28486266222521224497291142794866114797.z3.out
-------------------
2500.172217379
